
Gurobi 9.0.1 (linux64) logging started Fri May  1 00:42:10 2020

Gurobi Optimizer version 9.0.1 build v9.0.1rc0 (linux64)
Optimize a model with 1072 rows, 842 columns and 4116 nonzeros
Model fingerprint: 0x6f192a97
Variable types: 0 continuous, 842 integer (810 binary)
Coefficient statistics:
  Matrix range     [1e+00, 8e+00]
  Objective range  [3e+00, 1e+02]
  Bounds range     [1e+00, 1e+00]
  RHS range        [1e+00, 9e+00]

User MIP start produced solution with objective 571 (0.00s)
Loaded user MIP start with objective 571

Presolve removed 242 rows and 204 columns
Presolve time: 0.02s
Presolved: 830 rows, 638 columns, 3360 nonzeros
Variable types: 0 continuous, 638 integer (610 binary)

Root relaxation: objective 4.127500e+02, 877 iterations, 0.03 seconds

    Nodes    |    Current Node    |     Objective Bounds      |     Work
 Expl Unexpl |  Obj  Depth IntInf | Incumbent    BestBd   Gap | It/Node Time

     0     0  412.75000    0   27  571.00000  412.75000  27.7%     -    0s
     0     0  536.00000    0   57  571.00000  536.00000  6.13%     -    0s
     0     0  536.00000    0   57  571.00000  536.00000  6.13%     -    0s
     0     0  536.45000    0   68  571.00000  536.45000  6.05%     -    0s
     0     0  536.48214    0   66  571.00000  536.48214  6.05%     -    0s
     0     0  540.50000    0   80  571.00000  540.50000  5.34%     -    0s
     0     0  540.50000    0   81  571.00000  540.50000  5.34%     -    0s
     0     0  541.50000    0   89  571.00000  541.50000  5.17%     -    0s
     0     0  541.75000    0   74  571.00000  541.75000  5.12%     -    0s
     0     0  541.75000    0   78  571.00000  541.75000  5.12%     -    0s
     0     0  541.75000    0   77  571.00000  541.75000  5.12%     -    0s
     0     0  541.75000    0   78  571.00000  541.75000  5.12%     -    0s
     0     0  542.20000    0   74  571.00000  542.20000  5.04%     -    0s
     0     0  542.20000    0   80  571.00000  542.20000  5.04%     -    0s
     0     0  542.20000    0  101  571.00000  542.20000  5.04%     -    0s
     0     0  542.20000    0  102  571.00000  542.20000  5.04%     -    0s
     0     0  542.20000    0   67  571.00000  542.20000  5.04%     -    0s
     0     0  542.20000    0   81  571.00000  542.20000  5.04%     -    0s
     0     0  542.20000    0   92  571.00000  542.20000  5.04%     -    0s
     0     0  542.20000    0   72  571.00000  542.20000  5.04%     -    0s
     0     0  542.20000    0   31  571.00000  542.20000  5.04%     -    0s
     0     0  542.20000    0   59  571.00000  542.20000  5.04%     -    0s
     0     0  542.20000    0   62  571.00000  542.20000  5.04%     -    0s
     0     0  542.20000    0   85  571.00000  542.20000  5.04%     -    0s
     0     0  542.20000    0   85  571.00000  542.20000  5.04%     -    0s
     0     0  542.20000    0   54  571.00000  542.20000  5.04%     -    0s
     0     0  542.20000    0   66  571.00000  542.20000  5.04%     -    0s
     0     0  542.20000    0   58  571.00000  542.20000  5.04%     -    0s
     0     0  542.20000    0   60  571.00000  542.20000  5.04%     -    0s
     0     2  544.50000    0   52  571.00000  544.50000  4.64%     -    0s
  1035   348  562.73333   15  116  571.00000  550.72464  3.55%  50.6    5s
  1556   399  568.00000   27   83  571.00000  552.79872  3.19%  58.1   10s
  2200   239  559.36743   21  193  571.00000  558.42857  2.20%  64.7   15s

Cutting planes:
  Learned: 6
  Gomory: 4
  Cover: 21
  Implied bound: 53
  Clique: 1
  MIR: 22
  StrongCG: 1
  Flow cover: 99
  Inf proof: 9
  Zero half: 20
  RLT: 44
  Relax-and-lift: 2

Explored 2947 nodes (207556 simplex iterations) in 19.71 seconds
Thread count was 1 (of 40 available processors)

Solution count 1: 571 

Optimal solution found (tolerance 1.00e-04)
Best objective 5.710000000000e+02, best bound 5.710000000000e+02, gap 0.0000%

User-callback calls 11299, time in user-callback 0.01 sec
